(define-fun e0 () (_ BitVec 1) (_ bv0 1))
(declare-fun c1 () (_ BitVec 1))
(define-fun e2 () Bool (= e0 c1))
(define-fun e3 () (_ BitVec 48) (_ bv0 48))
(declare-fun c4 () (_ BitVec 48))
(define-fun e5 () Bool (= e3 c4))
(declare-fun c6 () (_ BitVec 48))
(define-fun e7 () Bool (= e3 c6))
(declare-fun c8 () (_ BitVec 48))
(define-fun e9 () Bool (= e3 c8))
(declare-fun c10 () (_ BitVec 48))
(define-fun e11 () Bool (= e3 c10))
(declare-fun c12 () (_ BitVec 16))
(define-fun e13 () (_ BitVec 18) ((_ zero_extend 2) c12))
(define-fun e14 () (_ BitVec 18) (_ bv65536 18))
(define-fun e15 () Bool (bvult e13 e14))
(define-fun e16 () Bool (and e11 e15))
(define-fun e17 () Bool (and e9 e16))
(define-fun e18 () Bool (and e7 e17))
(define-fun e19 () Bool (and e5 e18))
(define-fun e20 () Bool (and e2 e19))
(assert e20)
(declare-fun c21 () (_ BitVec 16))
(define-fun e22 () (_ BitVec 16) (bvmul c12 c21))
(define-fun e23 () (_ BitVec 48) ((_ zero_extend 32) c12))
(define-fun e24 () (_ BitVec 48) (bvnot e23))
(define-fun e25 () (_ BitVec 1) (bvneg (_ bv1 1)))
(define-fun e26 () (_ BitVec 44) (_ bv5864062014805 44))
(define-fun e27 () (_ BitVec 27) (bvneg (_ bv1 27)))
(define-fun e28 () (_ BitVec 27) ((_ zero_extend 11) c21))
(define-fun e29 () (_ BitVec 27) (bvadd e27 e28))
(define-fun e30 () (_ BitVec 1) ((_ extract 26 26) e29))
(define-fun e31 () (_ BitVec 28) (concat e30 e29))
(define-fun e32 () (_ BitVec 29) (concat e30 e31))
(define-fun e33 () (_ BitVec 30) (concat e30 e32))
(define-fun e34 () (_ BitVec 31) (concat e30 e33))
(define-fun e35 () (_ BitVec 32) (concat e30 e34))
(define-fun e36 () (_ BitVec 33) (concat e30 e35))
(define-fun e37 () (_ BitVec 34) (concat e30 e36))
(define-fun e38 () (_ BitVec 35) (concat e30 e37))
(define-fun e39 () (_ BitVec 36) (concat e30 e38))
(define-fun e40 () (_ BitVec 37) (concat e30 e39))
(define-fun e41 () (_ BitVec 38) (concat e30 e40))
(define-fun e42 () (_ BitVec 39) (concat e30 e41))
(define-fun e43 () (_ BitVec 40) (concat e30 e42))
(define-fun e44 () (_ BitVec 41) (concat e30 e43))
(define-fun e45 () (_ BitVec 42) (concat e30 e44))
(define-fun e46 () (_ BitVec 43) (concat e30 e45))
(define-fun e47 () (_ BitVec 44) (concat e30 e46))
(define-fun e48 () (_ BitVec 45) (concat e30 e47))
(define-fun e49 () (_ BitVec 1) ((_ extract 17 17) e29))
(define-fun e50 () (_ BitVec 18) ((_ extract 17 0) e29))
(define-fun e51 () (_ BitVec 19) (concat e49 e50))
(define-fun e52 () (_ BitVec 20) (concat e49 e51))
(define-fun e53 () (_ BitVec 21) (concat e49 e52))
(define-fun e54 () (_ BitVec 22) (concat e49 e53))
(define-fun e55 () (_ BitVec 23) (concat e49 e54))
(define-fun e56 () (_ BitVec 24) (concat e49 e55))
(define-fun e57 () (_ BitVec 25) (concat e49 e56))
(define-fun e58 () (_ BitVec 26) (concat e49 e57))
(define-fun e59 () (_ BitVec 27) (concat e49 e58))
(define-fun e60 () (_ BitVec 28) (concat e49 e59))
(define-fun e61 () (_ BitVec 29) (concat e49 e60))
(define-fun e62 () (_ BitVec 30) (concat e49 e61))
(define-fun e63 () (_ BitVec 31) (concat e49 e62))
(define-fun e64 () (_ BitVec 32) (concat e49 e63))
(define-fun e65 () (_ BitVec 33) (concat e49 e64))
(define-fun e66 () (_ BitVec 34) (concat e49 e65))
(define-fun e67 () (_ BitVec 35) (concat e49 e66))
(define-fun e68 () (_ BitVec 36) (concat e49 e67))
(define-fun e69 () (_ BitVec 37) (concat e49 e68))
(define-fun e70 () (_ BitVec 38) (concat e49 e69))
(define-fun e71 () (_ BitVec 39) (concat e49 e70))
(define-fun e72 () (_ BitVec 40) (concat e49 e71))
(define-fun e73 () (_ BitVec 41) (concat e49 e72))
(define-fun e74 () (_ BitVec 42) (concat e49 e73))
(define-fun e75 () (_ BitVec 43) (concat e49 e74))
(define-fun e76 () (_ BitVec 44) (concat e49 e75))
(define-fun e77 () (_ BitVec 45) (concat e49 e76))
(define-fun e78 () (_ BitVec 45) (bvmul e48 e77))
(define-fun e79 () (_ BitVec 44) ((_ extract 43 0) e78))
(define-fun e80 () (_ BitVec 44) (bvand e26 e79))
(define-fun e81 () (_ BitVec 45) (concat e25 e80))
(define-fun e82 () (_ BitVec 46) (concat e25 e81))
(define-fun e83 () (_ BitVec 47) (concat e25 e82))
(define-fun e84 () (_ BitVec 48) (concat e25 e83))
(define-fun e85 () (_ BitVec 48) (bvxor e24 e84))
(define-fun e86 () (_ BitVec 3) (_ bv0 3))
(define-fun e87 () (_ BitVec 1) ((_ extract 44 44) e78))
(define-fun e88 () (_ BitVec 1) (bvnot e87))
(define-fun e89 () (_ BitVec 44) (bvneg (_ bv5864062014806 44)))
(define-fun e90 () (_ BitVec 44) (bvand e89 e79))
(define-fun e91 () (_ BitVec 45) (concat e88 e90))
(define-fun e92 () (_ BitVec 48) (concat e86 e91))
(define-fun e93 () (_ BitVec 48) (bvxor e85 e92))
(define-fun e94 () (_ BitVec 48) (bvand e84 e92))
(define-fun e95 () (_ BitVec 48) (bvand e24 e92))
(define-fun e96 () (_ BitVec 48) (bvor e94 e95))
(define-fun e97 () (_ BitVec 48) (bvand e24 e84))
(define-fun e98 () (_ BitVec 48) (bvor e96 e97))
(define-fun e99 () (_ BitVec 11) ((_ extract 46 36) e98))
(define-fun e100 () (_ BitVec 1) ((_ extract 35 35) e98))
(define-fun e101 () (_ BitVec 11) ((_ extract 34 24) e98))
(define-fun e102 () (_ BitVec 1) ((_ extract 23 23) e98))
(define-fun e103 () (_ BitVec 11) ((_ extract 22 12) e98))
(define-fun e104 () (_ BitVec 1) ((_ extract 11 11) e98))
(define-fun e105 () (_ BitVec 11) ((_ extract 10 0) e98))
(define-fun e106 () (_ BitVec 12) (concat e105 e0))
(define-fun e107 () (_ BitVec 13) (concat e104 e106))
(define-fun e108 () (_ BitVec 24) (concat e103 e107))
(define-fun e109 () (_ BitVec 25) (concat e102 e108))
(define-fun e110 () (_ BitVec 36) (concat e101 e109))
(define-fun e111 () (_ BitVec 37) (concat e100 e110))
(define-fun e112 () (_ BitVec 48) (concat e99 e111))
(define-fun e113 () (_ BitVec 48) (bvand e93 e112))
(define-fun e114 () (_ BitVec 48) (_ bv41876062205 48))
(define-fun e115 () (_ BitVec 48) (bvand e114 e112))
(define-fun e116 () (_ BitVec 48) (bvor e113 e115))
(define-fun e117 () (_ BitVec 48) (bvand e114 e93))
(define-fun e118 () (_ BitVec 48) (bvor e116 e117))
(define-fun e119 () (_ BitVec 12) ((_ extract 22 11) e118))
(define-fun e120 () (_ BitVec 13) ((_ zero_extend 1) e119))
(define-fun e121 () (_ BitVec 48) (bvxor e93 e112))
(define-fun e122 () (_ BitVec 48) (bvxor e114 e121))
(define-fun e123 () (_ BitVec 12) ((_ extract 23 12) e122))
(define-fun e124 () (_ BitVec 13) ((_ zero_extend 1) e123))
(define-fun e125 () (_ BitVec 13) (bvadd e120 e124))
(define-fun e126 () (_ BitVec 11) ((_ extract 10 0) e118))
(define-fun e127 () (_ BitVec 12) (concat e126 e0))
(define-fun e128 () (_ BitVec 13) ((_ zero_extend 1) e127))
(define-fun e129 () (_ BitVec 12) ((_ extract 11 0) e122))
(define-fun e130 () (_ BitVec 13) ((_ zero_extend 1) e129))
(define-fun e131 () (_ BitVec 13) (bvadd e128 e130))
(define-fun e132 () (_ BitVec 1) ((_ extract 12 12) e131))
(define-fun e133 () (_ BitVec 13) ((_ zero_extend 12) e132))
(define-fun e134 () (_ BitVec 13) (bvadd e125 e133))
(define-fun e135 () (_ BitVec 12) ((_ extract 11 0) e134))
(define-fun e136 () (_ BitVec 12) ((_ extract 11 0) e131))
(define-fun e137 () (_ BitVec 24) (concat e135 e136))
(define-fun e138 () (_ BitVec 16) ((_ extract 15 0) e137))
(define-fun e139 () Bool (= e22 e138))
(define-fun e140 () Bool (not e139))
(assert e140)
(check-sat)
(get-model)
